     Program PHONON v.6.3MaX starts on 18Sep2019 at 22:10:12

     Reading data from directory:
     ./tmp/Si1.save/

     IMPORTANT: XC functional enforced from input :
     Exchange-correlation      = PBE ( 1  4  3  4 0 0)
     Any further DFT definition will be discarded
     Please, verify this is what you really want

     Check: negative/imaginary core charge=   -0.000056    0.000000

     Dynamical matrices for ( 4, 4, 4)  uniform grid of q-points
     (   8 q-points):
       N         xq(1)         xq(2)         xq(3)
       1   0.000000000   0.000000000   0.000000000
       2  -0.250000000   0.250000000  -0.250000000
       3   0.500000000  -0.500000000   0.500000000
       4   0.000000000   0.500000000   0.000000000
       5   0.750000000  -0.250000000   0.750000000
       6   0.500000000   0.000000000   0.500000000
       7   0.000000000  -1.000000000   0.000000000
       8  -0.500000000  -1.000000000   0.000000000

     Calculation of q =    0.0000000   0.0000000   0.0000000

     phonons of Si

     bravais-lattice index     =            2
     lattice parameter (alat)  =      10.3295  a.u.
     unit-cell volume          =     275.5397 (a.u.)^3
     number of atoms/cell      =            2
     number of atomic types    =            1
     kinetic-energy cut-off    =      16.0000  Ry
     charge density cut-off    =      64.0000  Ry
     convergence threshold     =      1.0E-12
     beta                      =       0.7000
     number of iterations used =            4
     Exchange-correlation      = PBE ( 1  4  3  4 0 0)

     celldm(1)=   10.32955  celldm(2)=    0.00000  celldm(3)=    0.00000
     celldm(4)=    0.00000  celldm(5)=    0.00000  celldm(6)=    0.00000

     crystal axes: (cart. coord. in units of alat)
               a(1) = ( -0.5000  0.0000  0.5000 )
               a(2) = (  0.0000  0.5000  0.5000 )
               a(3) = ( -0.5000  0.5000  0.0000 )

     reciprocal axes: (cart. coord. in units 2 pi/alat)
               b(1) = ( -1.0000 -1.0000  1.0000 )
               b(2) = (  1.0000  1.0000  1.0000 )
               b(3) = ( -1.0000  1.0000 -1.0000 )

     Atoms inside the unit cell:

     Cartesian axes

     site n.  atom      mass           positions (alat units)
        1     Si  28.0860   tau(    1) = (    0.00000    0.00000    0.00000  )
        2     Si  28.0860   tau(    2) = (    0.25000    0.25000    0.25000  )

     Computing dynamical matrix for
                    q = (   0.0000000   0.0000000   0.0000000 )

     49 Sym.Ops. (with q -> -q+G )

     G cutoff =  172.9749  (   2421 G-vectors)     FFT grid: ( 20, 20, 20)
     number of k points=    10

     PseudoPot. # 1 for Si read from file:
     /home/planck/kedar/softwares/SSSP_precision_pseudos/Si.pbe-n-rrkjus_psl.1.0.0.UPF
     MD5 check sum: 0b0bb1205258b0d07b9f9672cf965d36
     Pseudo is Ultrasoft + core correction, Zval =  4.0
     Generated using "atomic" code by A. Dal Corso v.5.1
     Using radial grid of 1141 points,  6 beta functions with:
                l(1) =   0
                l(2) =   0
                l(3) =   1
                l(4) =   1
                l(5) =   2
                l(6) =   2
     Q(r) pseudized with 0 coefficients

     Mode symmetry, O_h (m-3m)  point group:

     Electric field:
     Dielectric constant
     Born effective charges in two ways

     Atomic displacements:
     There are   2 irreducible representations

     Representation     1      3 modes -T_2g G_25' G_5+  To be done

     Representation     2      3 modes -T_1u G_15  G_4-  To be done

     Alpha used in Ewald sum =   0.7000

     Electric Fields Calculation

      thresh= 1.000E-02 alpha_mix =  0.700 |ddv_scf|^2 =  7.585E-07

[...]

     End of electric fields calculation

          Dielectric constant in cartesian axis

          (      13.858149201      -0.000000000      -0.000000000 )
          (      -0.000000000      13.858149201       0.000000000 )
          (      -0.000000000       0.000000000      13.858149201 )

          Effective charges (d Force / dE) in cartesian axis

           atom      1   Si
      Ex  (       -0.07275        0.00000        0.00000 )
      Ey  (        0.00000       -0.07275       -0.00000 )
      Ez  (        0.00000        0.00000       -0.07275 )
           atom      2   Si
      Ex  (       -0.07275       -0.00000       -0.00000 )
      Ey  (        0.00000       -0.07275        0.00000 )
      Ez  (       -0.00000       -0.00000       -0.07275 )

     Representation #  1 modes #   1  2  3

     Self-consistent Calculation

[...]

     End of self-consistent calculation

     Convergence has been achieved

[...]

     Number of q in the star =    1
     List of q in the star:
          1   0.000000000   0.000000000   0.000000000

          Dielectric constant in cartesian axis

          (      13.858149201      -0.000000000      -0.000000000 )
          (      -0.000000000      13.858149201       0.000000000 )
          (      -0.000000000       0.000000000      13.858149201 )

          Effective charges (d Force / dE) in cartesian axis

[...]

          Effective charges (d P / du) in cartesian axis

           atom      1   Si
      Px  (       -0.07296       -0.00000       -0.00000 )
      Py  (       -0.00000       -0.07296        0.00000 )
      Pz  (       -0.00000        0.00000       -0.07296 )
           atom      2   Si
      Px  (       -0.07296       -0.00000       -0.00000 )
      Py  (       -0.00000       -0.07296        0.00000 )
      Pz  (       -0.00000        0.00000       -0.07296 )

     Diagonalizing the dynamical matrix

     q = (    0.000000000   0.000000000   0.000000000 )

     freq (    1) =      -1.697622 [THz] =     -56.626585 [cm-1]
     freq (    2) =      -1.697622 [THz] =     -56.626585 [cm-1]
     freq (    3) =      -1.697622 [THz] =     -56.626585 [cm-1]
     freq (    4) =      15.097125 [THz] =     503.585869 [cm-1]
     freq (    5) =      15.097125 [THz] =     503.585869 [cm-1]
     freq (    6) =      15.097125 [THz] =     503.585869 [cm-1]

     Mode symmetry, O_h (m-3m)  point group:

     freq (  1 -  3) =        -56.6  [cm-1]   --> T_1u G_15  G_4- I
     freq (  4 -  6) =        503.6  [cm-1]   --> T_2g G_25' G_5+ R

[...]

     Subspace diagonalization in iterative solution of the eigenvalue problem:
     a serial algorithm will be used

     Title:
     phonons of Si

     bravais-lattice index     =            2
     lattice parameter (alat)  =      10.3295  a.u.
     unit-cell volume          =     275.5397 (a.u.)^3
     number of atoms/cell      =            2
     number of atomic types    =            1
     number of electrons       =         8.00
     number of Kohn-Sham states=            4
     kinetic-energy cutoff     =      16.0000  Ry
     charge density cutoff     =      64.0000  Ry
     Exchange-correlation      = PBE ( 1  4  3  4 0 0)

[...]

     atomic species   valence    mass     pseudopotential
        Si             4.00    28.08600     Si( 1.00)

     48 Sym. Ops., with inversion, found

[...]

     site n.     atom                  positions (alat units)
         1           Si  tau(   1) = (   0.0000000   0.0000000   0.0000000  )
         2           Si  tau(   2) = (   0.2500000   0.2500000   0.2500000  )

     number of k points=   120

     Number of k-points >= 100: set verbosity='high' to print them.

[...]

     The potential is recalculated from file :
     ./tmp/_ph0/Si1.save/charge-density.dat

     Starting wfcs are    8 atomic wfcs

     Band Structure Calculation
     Davidson diagonalization with overlap

     ethr =  1.25E-10,  avg # of iterations = 13.2

     End of band structure calculation

     Number of k-points >= 100: set verbosity='high' to print the bands.

     highest occupied level (ev):     5.7347

     Writing output data file Si1.save/

[...]

      6 Sym.Ops. (no q -> -q+G )

[...]

     Mode symmetry, C_3v (3m)   point group:

[...]

     Representation     1      1 modes -A_1  L_1  To be done

     Representation     2      1 modes -A_1  L_1  To be done

     Representation     3      2 modes -E    L_3  To be done

     Representation     4      2 modes -E    L_3  To be done

[...]

     Representation #  1 mode #   1

[...]

     Mode symmetry, C_3v (3m)   point group:

     freq (  1 -  2) =         78.3  [cm-1]   --> E    L_3
     freq (  3 -  3) =        221.6  [cm-1]   --> A_1  L_1
     freq (  4 -  4) =        475.4  [cm-1]   --> A_1  L_1
     freq (  5 -  6) =        484.8  [cm-1]   --> E    L_3

[...]

     number of k points=    60
                       cart. coord. in units 2pi/alat
        k(    1) = (  -0.1250000   0.1250000   0.1250000), wk =   0.0468750
        k(    2) = (   0.3750000  -0.3750000   0.6250000), wk =   0.0000000
        k(    3) = (  -0.3750000   0.3750000  -0.1250000), wk =   0.0468750
        k(    4) = (   0.1250000  -0.1250000   0.3750000), wk =   0.0000000
        k(    5) = (   0.3750000  -0.3750000   0.6250000), wk =   0.0468750
        k(    6) = (   0.8750000  -0.8750000   1.1250000), wk =   0.0000000
        k(    7) = (   0.1250000  -0.1250000   0.3750000), wk =   0.0468750
        k(    8) = (   0.6250000  -0.6250000   0.8750000), wk =   0.0000000
        k(    9) = (  -0.1250000   0.6250000   0.1250000), wk =   0.0937500
        k(   10) = (   0.3750000   0.1250000   0.6250000), wk =   0.0000000
        k(   11) = (   0.6250000  -0.1250000   0.8750000), wk =   0.0937500
        k(   12) = (   1.1250000  -0.6250000   1.3750000), wk =   0.0000000
        k(   13) = (   0.3750000   0.1250000   0.6250000), wk =   0.0937500
        k(   14) = (   0.8750000  -0.3750000   1.1250000), wk =   0.0000000
        k(   15) = (  -0.1250000  -0.8750000   0.1250000), wk =   0.0937500
        k(   16) = (   0.3750000  -1.3750000   0.6250000), wk =   0.0000000
        k(   17) = (  -0.3750000   0.3750000   0.3750000), wk =   0.0468750
        k(   18) = (   0.1250000  -0.1250000   0.8750000), wk =   0.0000000
        k(   19) = (   0.3750000  -0.3750000   1.1250000), wk =   0.0468750
        k(   20) = (   0.8750000  -0.8750000   1.6250000), wk =   0.0000000
        k(   21) = (   0.1250000  -0.1250000   0.1250000), wk =   0.0156250
        k(   22) = (   0.6250000  -0.6250000   0.6250000), wk =   0.0000000
        k(   23) = (  -0.3750000  -0.3750000  -0.1250000), wk =   0.0937500
        k(   24) = (   0.1250000  -0.8750000   0.3750000), wk =   0.0000000
        k(   25) = (  -0.1250000  -0.3750000   0.3750000), wk =   0.0468750
        k(   26) = (   0.3750000  -0.8750000   0.8750000), wk =   0.0000000
        k(   27) = (   0.3750000   0.3750000   0.6250000), wk =   0.0937500
        k(   28) = (   0.8750000  -0.1250000   1.1250000), wk =   0.0000000
        k(   29) = (   0.6250000   0.3750000  -0.3750000), wk =   0.0468750
        k(   30) = (   1.1250000  -0.1250000   0.1250000), wk =   0.0000000
        k(   31) = (   0.1250000   0.1250000   0.3750000), wk =   0.0937500
        k(   32) = (   0.6250000  -0.3750000   0.8750000), wk =   0.0000000
        k(   33) = (   0.3750000   0.1250000  -0.1250000), wk =   0.0468750
        k(   34) = (   0.8750000  -0.3750000   0.3750000), wk =   0.0000000
        k(   35) = (  -0.1250000  -0.6250000  -0.1250000), wk =   0.0468750
        k(   36) = (   0.3750000  -1.1250000   0.3750000), wk =   0.0000000
        k(   37) = (   0.1250000  -0.6250000   0.1250000), wk =   0.0468750
        k(   38) = (   0.6250000  -1.1250000   0.6250000), wk =   0.0000000
        k(   39) = (   0.6250000   0.1250000   0.8750000), wk =   0.0937500
        k(   40) = (   1.1250000  -0.3750000   1.3750000), wk =   0.0000000
        k(   41) = (  -0.8750000   0.1250000   0.6250000), wk =   0.0937500
        k(   42) = (  -0.3750000  -0.3750000   1.1250000), wk =   0.0000000
        k(   43) = (   0.8750000   0.1250000  -0.6250000), wk =   0.0937500
        k(   44) = (   1.3750000  -0.3750000  -0.1250000), wk =   0.0000000
        k(   45) = (   0.3750000  -0.1250000   0.6250000), wk =   0.0937500
        k(   46) = (   0.8750000  -0.6250000   1.1250000), wk =   0.0000000
        k(   47) = (  -0.6250000  -0.1250000   0.3750000), wk =   0.0937500
        k(   48) = (  -0.1250000  -0.6250000   0.8750000), wk =   0.0000000
        k(   49) = (   0.6250000  -0.1250000  -0.3750000), wk =   0.0937500
        k(   50) = (   1.1250000  -0.6250000   0.1250000), wk =   0.0000000
        k(   51) = (  -0.1250000   0.8750000  -0.1250000), wk =   0.0468750
        k(   52) = (   0.3750000   0.3750000   0.3750000), wk =   0.0000000
        k(   53) = (   0.1250000   0.8750000   0.1250000), wk =   0.0468750
        k(   54) = (   0.6250000   0.3750000   0.6250000), wk =   0.0000000
        k(   55) = (   0.3750000  -0.3750000   0.3750000), wk =   0.0156250
        k(   56) = (   0.8750000  -0.8750000   0.8750000), wk =   0.0000000
        k(   57) = (   0.3750000   0.3750000   1.1250000), wk =   0.0937500
        k(   58) = (   0.8750000  -0.1250000   1.6250000), wk =   0.0000000
        k(   59) = (   1.1250000   0.3750000  -0.3750000), wk =   0.0468750
        k(   60) = (   1.6250000  -0.1250000   0.1250000), wk =   0.0000000

[...]

          k =-0.1250 0.1250 0.1250 (   304 PWs)   bands (ev):

    -5.6168   4.4221   5.7347   5.7347

          k = 0.3750-0.3750 0.6250 (   298 PWs)   bands (ev):

[...]

     Representation     1      1 modes -  To be done

[...]

     Mode symmetry, C_4v (4mm)  point group:

[...]

     Representation     1      1 modes -A_1  G_1 D_1  To be done

     Representation     2      1 modes -B_2  G_4 D_2'  To be done

     Representation     3      2 modes -E    G_5 D_5  To be done

     Representation     4      2 modes -E    G_5 D_5  To be done

[...]

     Mode symmetry, C_4v (4mm)  point group:

     freq (  1 -  2) =        115.7  [cm-1]   --> E    G_5 D_5
     freq (  3 -  3) =        232.6  [cm-1]   --> A_1  G_1 D_1
     freq (  4 -  5) =        462.9  [cm-1]   --> E    G_5 D_5
     freq (  6 -  6) =        483.8  [cm-1]   --> B_2  G_4 D_2'

[...]

     Mode symmetry, C_s (m)     point group:

[...]

     Representation     1      1 modes -A'  To be done

[...]

     Representation     4      1 modes -A'  To be done

     Representation     5      1 modes -A''  To be done

     Representation     6      1 modes -A''  To be done

[...]

     Mode symmetry, C_s (m)     point group:

     freq (  1 -  1) =        136.9  [cm-1]   --> A''
     freq (  2 -  2) =        197.5  [cm-1]   --> A'
     freq (  3 -  3) =        315.2  [cm-1]   --> A'
     freq (  4 -  4) =        406.7  [cm-1]   --> A'
     freq (  5 -  5) =        456.0  [cm-1]   --> A''
     freq (  6 -  6) =        470.6  [cm-1]   --> A'

[...]

     number of k points=   144

     Number of k-points >= 100: set verbosity='high' to print them.

[...]

     Number of k-points >= 100: set verbosity='high' to print the bands.

[...]

     Mode symmetry, C_2v (mm2)  point group:

[...]

     Representation     6      1 modes -B_2  D_4  S_4  To be done

[...]

     Representation #  6 mode #   6

[...]

     Mode symmetry, C_2v (mm2)  point group:

     freq (  1 -  1) =        128.7  [cm-1]   --> B_1  D_3  S_3
     freq (  2 -  2) =        187.7  [cm-1]   --> B_2  D_4  S_4
     freq (  3 -  3) =        277.4  [cm-1]   --> A_1  D_1  S_1
     freq (  4 -  4) =        411.4  [cm-1]   --> B_2  D_4  S_4
     freq (  5 -  5) =        463.0  [cm-1]   --> A_2  D_2  S_2
     freq (  6 -  6) =        477.1  [cm-1]   --> A_1  D_1  S_1

[...]

     17 Sym.Ops. (with q -> -q+G )

[...]

     Calculation of q =   -0.5000000  -1.0000000   0.0000000

     Title:
     phonons of Si

     bravais-lattice index     =            2
     lattice parameter (alat)  =      10.3295  a.u.
     unit-cell volume          =     275.5397 (a.u.)^3
     number of atoms/cell      =            2
     number of atomic types    =            1
     number of electrons       =         8.00
     number of Kohn-Sham states=            4
     kinetic-energy cutoff     =      16.0000  Ry
     charge density cutoff     =      64.0000  Ry
     Exchange-correlation      = PBE ( 1  4  3  4 0 0)

[...]

     atomic species   valence    mass     pseudopotential
        Si             4.00    28.08600     Si( 1.00)

     48 Sym. Ops., with inversion, found

[...]

     site n.     atom                  positions (alat units)
         1           Si  tau(   1) = (   0.0000000   0.0000000   0.0000000  )
         2           Si  tau(   2) = (   0.2500000   0.2500000   0.2500000  )

     number of k points=    64
                       cart. coord. in units 2pi/alat
        k(    1) = (  -0.1250000   0.1250000   0.1250000), wk =   0.0625000
        k(    2) = (  -0.6250000  -0.8750000   0.1250000), wk =   0.0000000
        k(    3) = (  -0.3750000   0.3750000  -0.1250000), wk =   0.0625000
        k(    4) = (  -0.8750000  -0.6250000  -0.1250000), wk =   0.0000000
        k(    5) = (   0.3750000  -0.3750000   0.6250000), wk =   0.0625000
        k(    6) = (  -0.1250000  -1.3750000   0.6250000), wk =   0.0000000
        k(    7) = (   0.1250000  -0.1250000   0.3750000), wk =   0.0625000
        k(    8) = (  -0.3750000  -1.1250000   0.3750000), wk =   0.0000000
        k(    9) = (  -0.1250000   0.6250000   0.1250000), wk =   0.0625000
        k(   10) = (  -0.6250000  -0.3750000   0.1250000), wk =   0.0000000
        k(   11) = (   0.6250000  -0.1250000   0.8750000), wk =   0.0625000
        k(   12) = (   0.1250000  -1.1250000   0.8750000), wk =   0.0000000
        k(   13) = (   0.3750000   0.1250000   0.6250000), wk =   0.0625000
        k(   14) = (  -0.1250000  -0.8750000   0.6250000), wk =   0.0000000
        k(   15) = (  -0.1250000  -0.8750000   0.1250000), wk =   0.0625000
        k(   16) = (  -0.6250000  -1.8750000   0.1250000), wk =   0.0000000
        k(   17) = (  -0.3750000   0.3750000   0.3750000), wk =   0.0625000
        k(   18) = (  -0.8750000  -0.6250000   0.3750000), wk =   0.0000000
        k(   19) = (   0.3750000  -0.3750000   1.1250000), wk =   0.0625000
        k(   20) = (  -0.1250000  -1.3750000   1.1250000), wk =   0.0000000
        k(   21) = (   0.1250000  -0.3750000   0.3750000), wk =   0.0625000
        k(   22) = (  -0.3750000  -1.3750000   0.3750000), wk =   0.0000000
        k(   23) = (   0.3750000  -0.3750000  -0.1250000), wk =   0.0625000
        k(   24) = (  -0.1250000  -1.3750000  -0.1250000), wk =   0.0000000
        k(   25) = (  -0.6250000   0.3750000  -0.3750000), wk =   0.0625000
        k(   26) = (  -1.1250000  -0.6250000  -0.3750000), wk =   0.0000000
        k(   27) = (  -0.3750000   0.3750000   0.6250000), wk =   0.0625000
        k(   28) = (  -0.8750000  -0.6250000   0.6250000), wk =   0.0000000
        k(   29) = (  -0.3750000   0.1250000  -0.1250000), wk =   0.0625000
        k(   30) = (  -0.8750000  -0.8750000  -0.1250000), wk =   0.0000000
        k(   31) = (  -0.1250000   0.1250000   0.3750000), wk =   0.0625000
        k(   32) = (  -0.6250000  -0.8750000   0.3750000), wk =   0.0000000
        k(   33) = (   0.1250000   0.6250000  -0.1250000), wk =   0.0625000
        k(   34) = (  -0.3750000  -0.3750000  -0.1250000), wk =   0.0000000
        k(   35) = (   0.6250000   0.1250000  -0.1250000), wk =   0.0625000
        k(   36) = (   0.1250000  -0.8750000  -0.1250000), wk =   0.0000000
        k(   37) = (  -0.8750000   0.1250000  -0.6250000), wk =   0.0625000
        k(   38) = (  -1.3750000  -0.8750000  -0.6250000), wk =   0.0000000
        k(   39) = (   0.8750000  -0.1250000   0.6250000), wk =   0.0625000
        k(   40) = (   0.3750000  -1.1250000   0.6250000), wk =   0.0000000
        k(   41) = (  -0.6250000   0.1250000   0.8750000), wk =   0.0625000
        k(   42) = (  -1.1250000  -0.8750000   0.8750000), wk =   0.0000000
        k(   43) = (  -0.1250000   0.8750000   0.6250000), wk =   0.0625000
        k(   44) = (  -0.6250000  -0.1250000   0.6250000), wk =   0.0000000
        k(   45) = (   0.1250000   0.8750000  -0.6250000), wk =   0.0625000
        k(   46) = (  -0.3750000  -0.1250000  -0.6250000), wk =   0.0000000
        k(   47) = (  -0.6250000  -0.1250000  -0.3750000), wk =   0.0625000
        k(   48) = (  -1.1250000  -1.1250000  -0.3750000), wk =   0.0000000
        k(   49) = (   0.6250000   0.1250000   0.3750000), wk =   0.0625000
        k(   50) = (   0.1250000  -0.8750000   0.3750000), wk =   0.0000000
        k(   51) = (  -0.3750000  -0.1250000   0.6250000), wk =   0.0625000
        k(   52) = (  -0.8750000  -1.1250000   0.6250000), wk =   0.0000000
        k(   53) = (   0.1250000   0.6250000   0.3750000), wk =   0.0625000
        k(   54) = (  -0.3750000  -0.3750000   0.3750000), wk =   0.0000000
        k(   55) = (  -0.1250000   0.6250000  -0.3750000), wk =   0.0625000
        k(   56) = (  -0.6250000  -0.3750000  -0.3750000), wk =   0.0000000
        k(   57) = (   0.1250000  -0.8750000  -0.1250000), wk =   0.0625000
        k(   58) = (  -0.3750000  -1.8750000  -0.1250000), wk =   0.0000000
        k(   59) = (  -0.8750000   0.1250000  -0.1250000), wk =   0.0625000
        k(   60) = (  -1.3750000  -0.8750000  -0.1250000), wk =   0.0000000
        k(   61) = (  -1.1250000   0.3750000  -0.3750000), wk =   0.0625000
        k(   62) = (  -1.6250000  -0.6250000  -0.3750000), wk =   0.0000000
        k(   63) = (  -0.3750000   0.3750000   1.1250000), wk =   0.0625000
        k(   64) = (  -0.8750000  -0.6250000   1.1250000), wk =   0.0000000

     Check: negative/imaginary core charge=   -0.000056    0.000000

     The potential is recalculated from file :
     ./tmp/_ph0/Si1.save/charge-density.dat

     Starting wfcs are    8 atomic wfcs

     Band Structure Calculation
     Davidson diagonalization with overlap

     ethr =  1.25E-10,  avg # of iterations = 13.0

     End of band structure calculation

[...]

          k = 0.1250-0.8750-0.1250 (   297 PWs)   bands (ev):

[...]

          k =-0.8750-0.6250 1.1250 (   300 PWs)   bands (ev):

    -5.0889   2.8018   4.7210   4.7867

     highest occupied level (ev):     5.7347

     Writing output data file Si1.save/

     phonons of Si

     bravais-lattice index     =            2
     lattice parameter (alat)  =      10.3295  a.u.
     unit-cell volume          =     275.5397 (a.u.)^3
     number of atoms/cell      =            2
     number of atomic types    =            1
     kinetic-energy cut-off    =      16.0000  Ry
     charge density cut-off    =      64.0000  Ry
     convergence threshold     =      1.0E-12
     beta                      =       0.7000
     number of iterations used =            4
     Exchange-correlation      = PBE ( 1  4  3  4 0 0)

     celldm(1)=   10.32955  celldm(2)=    0.00000  celldm(3)=    0.00000
     celldm(4)=    0.00000  celldm(5)=    0.00000  celldm(6)=    0.00000

     crystal axes: (cart. coord. in units of alat)
               a(1) = ( -0.5000  0.0000  0.5000 )
               a(2) = (  0.0000  0.5000  0.5000 )
               a(3) = ( -0.5000  0.5000  0.0000 )

     reciprocal axes: (cart. coord. in units 2 pi/alat)
               b(1) = ( -1.0000 -1.0000  1.0000 )
               b(2) = (  1.0000  1.0000  1.0000 )
               b(3) = ( -1.0000  1.0000 -1.0000 )

     Atoms inside the unit cell:

     Cartesian axes

     site n.  atom      mass           positions (alat units)
        1     Si  28.0860   tau(    1) = (    0.00000    0.00000    0.00000  )
        2     Si  28.0860   tau(    2) = (    0.25000    0.25000    0.25000  )

     Computing dynamical matrix for
                    q = (  -0.5000000  -1.0000000   0.0000000 )

      8 Sym.Ops. (no q -> -q+G )

     G cutoff =  172.9749  (   2421 G-vectors)     FFT grid: ( 20, 20, 20)
     number of k points=    64

     PseudoPot. # 1 for Si read from file:
     /home/planck/kedar/softwares/SSSP_precision_pseudos/Si.pbe-n-rrkjus_psl.1.0.0.UPF
     MD5 check sum: 0b0bb1205258b0d07b9f9672cf965d36
     Pseudo is Ultrasoft + core correction, Zval =  4.0
     Generated using "atomic" code by A. Dal Corso v.5.1
     Using radial grid of 1141 points,  6 beta functions with:
                l(1) =   0
                l(2) =   0
                l(3) =   1
                l(4) =   1
                l(5) =   2
                l(6) =   2
     Q(r) pseudized with 0 coefficients

     Atomic displacements:
     There are   3 irreducible representations

[...]

     Representation     3      2 modes -  To be done

     Alpha used in Ewald sum =   0.7000

[...]

     Representation #  3 modes #   5  6

     Self-consistent Calculation

[...]

      thresh= 3.861E-07 alpha_mix =  0.700 |ddv_scf|^2 =  5.536E-13

     End of self-consistent calculation

     Convergence has been achieved

     Number of q in the star =    6
     List of q in the star:
          1  -0.500000000  -1.000000000   0.000000000
          2   0.000000000   1.000000000   0.500000000
          3   0.000000000  -1.000000000  -0.500000000
          4   0.500000000   1.000000000   0.000000000
          5  -1.000000000  -0.500000000   0.000000000
          6   0.000000000  -0.500000000  -1.000000000

     Diagonalizing the dynamical matrix

     q = (   -0.500000000  -1.000000000   0.000000000 )

     freq (    1) =       6.020484 [THz] =     200.821728 [cm-1]
     freq (    2) =       6.020484 [THz] =     200.821728 [cm-1]
     freq (    3) =      10.431241 [THz] =     347.948762 [cm-1]
     freq (    4) =      10.431241 [THz] =     347.948762 [cm-1]
     freq (    5) =      13.678955 [THz] =     456.280814 [cm-1]
     freq (    6) =      13.678955 [THz] =     456.280814 [cm-1]

     General routines

     Parallel routines

     INITIALIZATION:

     DYNAMICAL MATRIX:

      General routines

   This run was terminated on:  22:12:47  18Sep2019

   JOB DONE.